010011110001111100111001111100001001010011111010101100110000011100101101111011101010010011111100010011110100111101010001100111101010100000100010001000011001011110111110100010111100100011010100111111111101011001100010001001100010110110100100101100000110000100001101001001000111101100101000101001000010100010100000100110110011111101011111101101110001000111100000011111011111110001101100110001010011100100100110000010111111000010001101000001101101101010101100111110000001011101011010110111110011001011101111001111000111000100000100100111101001100101011101111011100011000010110101101111100011111100100000010011111101111110101110110110110110001100011111000010101001110011011011000010000100000111111001110011001011100000001010110010011100001011000001100010011001111010100101111111110110110001011100111110100010000100001101111100110010001011011111111100001100011101001111010111010000100011011010101110111110001000011001011000110000010110010110010100001111111101010011001001110001001000000110010101010000110111000110001101110110100010010101000101011010101101001100001100001110001100000101010111000101011111010000001111011010001100111001011001001000010010011110011110110110011010000011000100100001100101110101001001001111010100100110011101010101010100000110